====================================================================================================================
File name: 200_10_135_9_D6.def
Creation date: Tue Nov 25 16:29:03 CET 2014
Website: http://imopse.ii.pwr.edu.pl/ 
Reference: 
Myszkowski P. B., Skowronski M. E., Olech L., Oslizlo K., 
Hybrid Ant Colony Optimization in solving Multi-Skill Resource-Constrained Project Scheduling Problem, 
Soft Computing, DOI: DOI 10.1007/s00500-014-1455-x 
====================================================================================================================
====================================================================================================================
=====================================================IMPORTANT======================================================
====================================================================================================================
Lacking task identifiers is a result of transforming definitions from MPP to DEF format.
Those lacking ids reflects to the summary tasks, available in MS Project definition that have been removed here.
 Therefore number of precedence relations increased, as relations between summary task had to be multiplied
to all tasks that were included into summary ones. Both file definition formats are compatible with each other.
====================================================================================================================
The file is free from calendar restrictions, typical for .mpp format
====================================================================================================================
General characteristics:
Tasks: 161
Resources: 10
Precedence relations: 321
Number of skill types: 9
====================================================================================================================
ResourceID 	 Salary 	 Skills 
1	 	 	14.2	 	 Q2: 0 	  Q3: 2 	  Q1: 0 	  Q4: 2 	  Q7: 1 	  Q8: 2 	 
2	 	 	31.2	 	 Q0: 0 	  Q4: 2 	  Q7: 1 	  Q3: 1 	  Q8: 2 	  Q2: 0 	 
3	 	 	34.4	 	 Q4: 0 	  Q2: 1 	  Q6: 2 	  Q3: 1 	  Q0: 1 	  Q5: 0 	 
4	 	 	26.0	 	 Q5: 2 	  Q1: 1 	  Q4: 1 	  Q8: 2 	  Q0: 2 	  Q2: 2 	 
5	 	 	30.8	 	 Q8: 0 	  Q7: 1 	  Q3: 1 	  Q1: 2 	  Q4: 1 	  Q5: 1 	 
6	 	 	17.3	 	 Q6: 1 	  Q3: 2 	  Q4: 2 	  Q2: 0 	  Q7: 2 	  Q1: 0 	 
7	 	 	19.8	 	 Q1: 2 	  Q4: 2 	  Q5: 0 	  Q7: 1 	  Q3: 1 	  Q6: 2 	 
8	 	 	35.8	 	 Q2: 1 	  Q0: 1 	  Q3: 2 	  Q6: 0 	  Q7: 0 	  Q8: 1 	 
9	 	 	37.6	 	 Q7: 0 	  Q5: 2 	  Q2: 0 	  Q1: 0 	  Q0: 1 	  Q3: 1 	 
10	 	 	23.5	 	 Q8: 1 	  Q5: 1 	  Q1: 2 	  Q6: 0 	  Q4: 0 	  Q3: 2 	 
====================================================================================================================
TaskID 	 Duration 	 Skill 	 Predecessor IDs 
1	 	 	11	 Q8: 1
2	 	 	12	 Q6: 1
3	 	 	9	 Q5: 2	 	2
4	 	 	24	 Q7: 1
5	 	 	40	 Q2: 2
6	 	 	26	 Q3: 2	 	5
7	 	 	32	 Q8: 2	 	6
8	 	 	34	 Q5: 1	 	7
9	 	 	34	 Q1: 0
10	 	 	31	 Q2: 1
11	 	 	14	 Q0: 1
12	 	 	38	 Q7: 1	 	11	
13	 	 	27	 Q3: 1
14	 	 	34	 Q6: 0
15	 	 	24	 Q2: 0
16	 	 	37	 Q6: 1	 	15	
17	 	 	20	 Q5: 2	 	16	
18	 	 	18	 Q3: 1
19	 	 	18	 Q0: 1	 	18	
20	 	 	18	 Q4: 1	 	19	
21	 	 	13	 Q1: 1	 	20	
22	 	 	34	 Q1: 1
23	 	 	36	 Q7: 2
24	 	 	33	 Q5: 0
25	 	 	16	 Q2: 1
26	 	 	36	 Q7: 1	 	25	
27	 	 	12	 Q2: 0	 	14	26
28	 	 	39	 Q1: 0
29	 	 	31	 Q7: 0	 	18	14	28
30	 	 	19	 Q2: 2	 	17	14	28
31	 	 	21	 Q4: 1	 	30	27	28	14
32	 	 	27	 Q3: 2	 	31	30	27	28	14
33	 	 	24	 Q7: 0	 	32	28
34	 	 	20	 Q5: 0	 	28	
35	 	 	11	 Q4: 1	 	34	22	28
36	 	 	22	 Q6: 0	 	22	28
37	 	 	23	 Q2: 0	 	36	22	28
38	 	 	19	 Q0: 1	 	33	28
39	 	 	24	 Q3: 1	 	27	33	28
40	 	 	35	 Q3: 1	 	28	
41	 	 	21	 Q4: 0	 	28	
42	 	 	29	 Q5: 2	 	41	28
43	 	 	12	 Q7: 2	 	35	28	41
44	 	 	15	 Q1: 1	 	43	28	41
45	 	 	35	 Q8: 0	 	28	41
46	 	 	23	 Q3: 1	 	43	42	41
47	 	 	18	 Q4: 1	 	46	45	28	41
48	 	 	21	 Q3: 2	 	46	45	28	41
49	 	 	17	 Q1: 1	 	48	28
50	 	 	10	 Q7: 2	 	49	38
51	 	 	27	 Q5: 2	 	50	49	38
52	 	 	19	 Q1: 2	 	51	
53	 	 	14	 Q6: 1	 	52	
54	 	 	26	 Q6: 0	 	53	
55	 	 	21	 Q7: 2	 	53	
56	 	 	10	 Q1: 2	 	55	53
57	 	 	20	 Q2: 0	 	56	54	53
58	 	 	24	 Q0: 1	 	57	53
59	 	 	27	 Q7: 1	 	53	
60	 	 	24	 Q8: 2	 	59	53
61	 	 	25	 Q0: 1	 	53	
62	 	 	13	 Q1: 2	 	53	
63	 	 	28	 Q6: 0	 	54	53
64	 	 	9	 Q2: 0	 	63	53
65	 	 	39	 Q0: 2	 	61	64
66	 	 	20	 Q1: 1	 	64	
67	 	 	19	 Q0: 0
68	 	 	22	 Q7: 2
69	 	 	40	 Q5: 2
70	 	 	23	 Q5: 0	 	69	66
71	 	 	28	 Q2: 2	 	70	
72	 	 	39	 Q4: 0
73	 	 	24	 Q7: 0
74	 	 	33	 Q1: 2
75	 	 	38	 Q5: 1
76	 	 	28	 Q0: 1
77	 	 	19	 Q5: 2
78	 	 	19	 Q6: 1	 	76	77
79	 	 	21	 Q1: 0
80	 	 	31	 Q0: 0	 	79	
81	 	 	14	 Q2: 1	 	80	
82	 	 	19	 Q8: 0	 	74	
83	 	 	36	 Q4: 1	 	82	
84	 	 	24	 Q6: 0
85	 	 	33	 Q2: 0	 	84	
86	 	 	33	 Q2: 1	 	85	
87	 	 	34	 Q1: 0
88	 	 	17	 Q3: 1	 	87	
89	 	 	27	 Q8: 2
90	 	 	23	 Q6: 2
91	 	 	27	 Q4: 0
92	 	 	12	 Q4: 1
93	 	 	33	 Q4: 1	 	92	
94	 	 	32	 Q8: 1	 	76	
95	 	 	38	 Q1: 2	 	94	76
96	 	 	22	 Q8: 2	 	87	95	76
97	 	 	15	 Q2: 0	 	76	
98	 	 	14	 Q0: 0	 	97	76
99	 	 	13	 Q1: 1	 	98	
100	 	 	25	 Q8: 1	 	99	
101	 	 	34	 Q1: 0	 	100	99	
102	 	 	34	 Q6: 1	 	89	88	99
103	 	 	20	 Q8: 1	 	102	99	
104	 	 	17	 Q8: 1	 	103	99	
105	 	 	25	 Q0: 1	 	99	
106	 	 	15	 Q2: 0	 	105	
107	 	 	28	 Q6: 0	 	106	
108	 	 	22	 Q6: 2
109	 	 	28	 Q6: 2	 	108	95	
110	 	 	12	 Q6: 1	 	100	
111	 	 	14	 Q7: 0	 	110	104	
112	 	 	22	 Q5: 0	 	111	110	104
113	 	 	30	 Q3: 2	 	110	104	
114	 	 	27	 Q1: 2	 	113	110	104
115	 	 	35	 Q5: 2	 	114	110	104	113
116	 	 	25	 Q1: 2	 	114	110	104	113
117	 	 	38	 Q6: 2
118	 	 	26	 Q4: 0	 	107	103	
119	 	 	19	 Q0: 0	 	118	
120	 	 	36	 Q6: 0	 	119	
121	 	 	22	 Q7: 1	 	120	
122	 	 	32	 Q2: 0	 	120	
123	 	 	27	 Q6: 1	 	120	
124	 	 	38	 Q5: 1	 	123	120	
125	 	 	18	 Q7: 0	 	124	120	
126	 	 	17	 Q3: 1	 	125	
127	 	 	31	 Q5: 2	 	126	
128	 	 	25	 Q2: 1
129	 	 	33	 Q5: 2	 	120	128	121
130	 	 	29	 Q7: 2	 	127	128	121
131	 	 	17	 Q7: 2	 	130	128	121
132	 	 	34	 Q6: 1	 	128	121	119	120
133	 	 	18	 Q5: 1	 	132	128	121	119	120
134	 	 	37	 Q8: 2	 	133	128	121	119	120
135	 	 	24	 Q7: 2	 	128	121	119	120
136	 	 	26	 Q6: 1	 	135	128	121	119	120
137	 	 	28	 Q2: 2	 	130	136	128	121	119	120
138	 	 	36	 Q2: 1	 	134	137	136	128	121	119	120
139	 	 	13	 Q7: 1	 	138	128	121	119	120
140	 	 	38	 Q4: 2	 	128	121	119	120
141	 	 	32	 Q7: 2	 	131	140	128	121	119	120
142	 	 	10	 Q8: 0	 	132	128	121	119	120
143	 	 	29	 Q8: 2	 	142	128	121	119	120
144	 	 	21	 Q7: 2	 	128	121	119	120
145	 	 	34	 Q0: 2	 	128	121	119	120
146	 	 	10	 Q5: 1	 	128	121	119	120
147	 	 	27	 Q3: 2	 	128	121	119	120
148	 	 	20	 Q5: 2	 	141	139	143	128	121	119	120
149	 	 	28	 Q6: 0	 	148	128	121	119	120
150	 	 	30	 Q8: 0	 	149	128	121	119	120
151	 	 	36	 Q4: 2	 	128	121	119	120
152	 	 	14	 Q0: 0	 	151	128	121	119	120
153	 	 	18	 Q1: 1	 	152	128	121	119	120
154	 	 	21	 Q4: 0	 	153	152	128	121	119	120
155	 	 	27	 Q1: 0	 	154	128	121	119	120
156	 	 	29	 Q1: 2	 	155	128	121	119	120
157	 	 	23	 Q4: 0	 	147	128	121	119	120
158	 	 	19	 Q0: 1	 	128	121	119	120
159	 	 	18	 Q3: 1	 	128	121	119	120
160	 	 	33	 Q5: 1	 	128	121	119	120
161	 	 	14	 Q7: 0	 	119	120	128	121
====================================================================================================================
